1
150
71
30 8
31 6
32 5
33 8
34 7
35 7
36 6
37 12
38 6
39 7
40 3
41 9
42 7
43 6
44 7
45 10
46 12
47 5
48 7
49 5
50 5
51 7
52 6
53 11
54 6
55 6
56 8
57 6
58 5
59 7
60 9
61 8
62 3
63 7
64 9
65 7
66 8
67 4
68 7
69 7
70 5
71 7
72 5
73 9
74 8
75 7
76 8
77 8
78 7
79 9
80 8
81 8
82 4
83 2
84 6
85 3
86 7
87 8
88 7
89 10
90 13
91 10
92 12
93 5
94 2
95 6
96 6
97 12
98 6
99 8
100 5
